NAME: instance_702
TYPE: TSP
DIMENSION: 20
EDGE_WEIGHT_TYPE: EUC_2D
NODE_COORD_SECTION
0 8.54 58.36
1 44.70 85.63
2 14.61 70.56
3 13.20 60.48
4 67.57 9.37
5 79.50 6.05
6 61.93 21.41
7 48.44 90.13
8 31.45 80.48
9 18.75 61.75
10 7.26 31.73
11 31.70 49.51
12 15.51 73.54
13 13.80 61.54
14 58.33 22.62
15 42.39 79.81
16 67.50 47.72
17 46.58 60.45
18 8.38 17.34
19 50.23 6.07
EOF
